\ENCODING=ISO-8859-1
\Problem name: IloCplex

Minimize
 obj1: x1
Subject To
 c1: 13 x2 + 5 x3 + 5 x4 + 9 x5 + 10 x6 + 11 x7 + 14 x8 + 15 x9 + 12 x10
     + 10 x11 <= 52
 c2: - x1 - 4 x2 - x3 - 9 x4 - 6 x5 - 7 x6 - 5 x7 - 4 x8 - 9 x9 - 2 x10 - 3 x11
     <= 2
 c3: - x1 - 9 x2 - 4 x3 - 4 x4 - 4 x5 - 8 x6 - 5 x7 - 6 x8 - 3 x9 - 3 x10
     - 9 x11 <= 2
 c4: - x1 - 4 x2 - 5 x3 - 5 x4 - 9 x5 - x6 - 2 x7 - 5 x8 - 6 x9 - 3 x10 - x11
     <= -25
 c5: - 4 x2 - x3 - 9 x4 - 6 x5 - 7 x6 - 5 x7 - 4 x8 - 9 x9 - 2 x10 - 3 x11
     <= 2147483647
 c6: - 9 x2 - 4 x3 - 4 x4 - 4 x5 - 8 x6 - 5 x7 - 6 x8 - 3 x9 - 3 x10 - 9 x11
     <= 2147483647
 c7: - 4 x2 - 5 x3 - 5 x4 - 9 x5 - x6 - 2 x7 - 5 x8 - 6 x9 - 3 x10 - x11 <= -25
Bounds
      x2 = 0
 0 <= x3 <= 1
 0 <= x4 <= 1
 0 <= x5 <= 1
      x6 = 0
      x7 = 0
      x8 = 1
      x9 = 0
      x10 = 0
 0 <= x11 <= 1
End
